000 -99 000 000 000 000 -99 -99 -99 -99 -99 -99 000 000 000 -99 -99 -99 -99 000 000 000 000 000 000 000 -99 000 -99 005 003
-99 000 000 000 000 000 000 -99 -99 -99 -99 -99 -99 -99 000 000 -99 -99 -99 000 000 000 000 000 000 000 000 000 -99 007 001
-99 000 000 000 000 000 000 000 -99 -99 -99 -99 -99 -99 000 000 000 -99 -99 -99 000 000 -99 000 000 000 000 000 000 000 010
000 -99 000 000 000 000 000 000 000 000 -99 -99 -99 -99 -99 000 000 -99 -99 000 000 000 000 000 000 000 001 001 001 000 003
000 -99 000 000 000 000 000 000 000 000 -99 -99 -99 -99 -99 000 -99 -99 -99 -99 000 000 000 000 000 001 003 006 006 006 001
000 000 000 000 000 000 000 000 000 000 000 -99 000 -99 -99 -99 000 -99 -99 -99 000 000 000 -99 000 001 003 008 009 006 001
000 000 000 000 000 000 000 000 000 000 000 000 000 000 000 000 000 000 -99 -99 000 000 000 000 000 000 002 007 006 011 000
000 000 000 000 000 -99 000 000 000 000 000 -99 000 000 -99 000 000 000 000 -99 000 000 000 000 -99 000 000 005 002 002 000
000 000 000 000 -99 -99 -99 000 000 000 000 -99 -99 003 003 -99 000 000 000 -99 000 000 000 000 -99 000 000 000 000 000 000
000 000 000 000 000 000 000 000 000 000 000 000 -99 002 002 -99 -99 000 000 -99 000 000 -99 -99 -99 -99 000 000 000 000 -99
000 000 000 000 000 000 000 000 000 -99 000 000 -99 001 -99 -99 -99 000 000 -99 -99 000 -99 000 -99 -99 000 000 000 000 -99
000 000 000 000 000 000 000 000 000 000 -99 000 000 -99 -99 -99 -99 000 000 -99 -99 -99 -99 000 000 -99 000 000 000 000 000
000 000 000 000 000 000 000 000 000 000 -99 000 000 -99 -99 -99 000 -99 000 000 000 -99 -99 -99 000 -99 000 000 000 000 000
000 000 -99 000 000 000 000 000 000 000 -99 000 000 -99 -99 -99 000 000 -99 000 000 000 -99 -99 000 000 000 000 000 000 000
000 -99 -99 000 000 000 000 000 000 -99 -99 -99 000 000 -99 -99 000 000 -99 -99 -99 000 -99 -99 000 000 000 000 000 000 000
000 -99 -99 -99 000 000 000 000 000 -99 -99 -99 -99 000 000 -99 000 000 -99 -99 -99 000 -99 -99 000 000 000 000 000 000 000
000 -99 -99 -99 000 000 -99 000 000 -99 -99 -99 -99 000 000 -99 000 000 -99 -99 -99 -99 000 -99 000 000 000 000 000 000 000
000 000 -99 -99 -99 -99 000 000 000 -99 -99 -99 -99 000 000 -99 000 000 -99 -99 -99 000 000 000 -99 -99 -99 -99 000 000 000
000 000 000 -99 -99 -99 -99 000 000 -99 -99 000 -99 -99 000 -99 000 000 000 -99 -99 000 000 -99 -99 000 000 -99 000 000 -99
000 000 000 000 -99 -99 000 000 000 000 000 000 -99 001 001 -99 000 000 000 -99 000 000 000 -99 -99 -99 -99 -99 -99 000 -99
000 000 000 000 000 000 -99 000 000 000 000 000 -99 005 003 -99 000 000 000 -99 000 000 000 -99 -99 -99 -99 -99 -99 -99 -99
000 000 000 000 000 000 -99 000 000 000 -99 -99 -99 007 002 000 000 000 000 000 000 000 000 -99 -99 -99 -99 -99 -99 -99 -99
000 000 000 000 000 000 000 000 000 000 -99 -99 -99 006 000 000 000 000 000 000 000 000 000 -99 -99 -99 -99 -99 -99 -99 -99
000 000 000 000 000 000 000 000 000 -99 -99 -99 -99 000 000 000 000 000 000 000 000 000 000 -99 -99 -99 -99 -99 -99 -99 -99
000 000 000 000 000 000 000 000 000 -99 -99 -99 -99 000 000 000 000 000 000 000 000 000 000 -99 -99 -99 -99 -99 -99 -99 -99
000 000 000 000 000 000 000 000 000 000 -99 -99 -99 000 000 000 000 000 000 000 000 -99 -99 -99 -99 -99 -99 -99 -99 -99 000
000 000 000 000 000 000 000 000 000 000 -99 -99 -99 000 000 000 000 000 -99 -99 000 000 000 -99 -99 -99 -99 -99 -99 -99 -99
000 000 000 000 000 000 000 000 000 000 -99 -99 -99 -99 000 000 000 000 000 -99 000 000 000 -99 -99 -99 -99 -99 -99 -99 000
000 000 000 000 000 000 000 000 000 000 -99 -99 -99 000 000 000 000 000 000 000 000 000 -99 -99 -99 -99 -99 -99 -99 -99 000
000 000 000 000 000 000 000 000 000 -99 -99 -99 -99 000 000 000 000 000 000 000 000 000 -99 -99 -99 -99 -99 -99 -99 -99 000
000 000 000 000 000 000 000 000 000 000 -99 -99 -99 000 000 000 000 000 000 000 000 000 -99 -99 -99 -99 -99 -99 -99 -99 000
000 000 000 000 000 000 000 000 000 -99 -99 -99 -99 000 000 000 000 000 000 -99 -99 -99 000 000 -99 -99 -99 -99 -99 -99 000
000 000 000 000 000 000 000 000 000 -99 -99 -99 -99 000 000 000 000 000 000 -99 -99 -99 000 000 000 000 -99 000 000 -99 000
-99 000 000 000 000 000 000 000 000 000 -99 -99 000 000 000 000 000 000 -99 -99 -99 -99 000 000 000 000 000 000 000 000 000
-99 000 000 000 000 000 000 000 000 000 000 000 000 000 000 -99 000 000 -99 000 000 -99 000 000 000 000 000 000 000 000 000
000 000 000 000 000 000 000 000 000 -99 000 000 000 000 000 000 000 000 -99 000 000 -99 -99 000 000 000 000 000 000 000 000
000 000 000 000 000 -99 -99 000 000 -99 000 -99 000 000 000 000 000 000 000 000 000 -99 -99 -99 000 000 000 000 000 000 000
000 000 000 000 000 -99 -99 000 000 -99 -99 -99 -99 000 000 000 000 000 000 000 000 -99 -99 000 000 000 -99 -99 -99 000 000
000 000 000 -99 000 000 -99 000 -99 -99 -99 -99 000 000 000 000 000 000 000 -99 000 -99 -99 000 000 -99 -99 -99 -99 -99 -99
000 000 000 000 000 -99 -99 -99 -99 -99 -99 000 000 000 000 000 000 000 -99 -99 000 -99 -99 000 -99 -99 -99 -99 -99 -99 -99
000 000 000 000 000 -99 -99 -99 -99 -99 000 000 000 000 000 000 000 -99 -99 -99 000 -99 000 000 -99 -99 -99 -99 -99 -99 -99
000 000 -99 000 -99 -99 -99 -99 -99 -99 000 000 000 000 000 000 000 000 000 000 000 -99 000 -99 -99 -99 -99 -99 -99 -99 000
000 -99 -99 001 000 000 -99 -99 -99 -99 -99 000 000 000 000 000 000 000 000 000 -99 -99 -99 -99 000 000 -99 -99 -99 -99 000
000 -99 001 001 000 000 -99 -99 -99 -99 -99 000 000 -99 000 000 000 000 000 -99 -99 -99 -99 -99 000 000 -99 -99 -99 -99 -99
000 -99 -99 000 -99 -99 -99 -99 -99 -99 000 000 000 -99 000 000 -99 000 000 000 -99 -99 -99 000 000 -99 -99 -99 -99 -99 -99
-99 -99 -99 -99 -99 -99 -99 -99 -99 -99 000 000 000 -99 000 -99 -99 000 000 -99 -99 -99 -99 -99 000 000 000 000 -99 -99 -99
-99 -99 -99 -99 -99 -99 -99 -99 -99 -99 -99 000 -99 -99 -99 -99 -99 000 000 000 -99 -99 -99 -99 -99 000 000 -99 -99 -99 -99
-99 -99 -99 -99 -99 -99 -99 -99 -99 -99 -99 -99 -99 -99 -99 -99 -99 000 000 -99 -99 000 -99 -99 -99 -99 000 -99 -99 -99 -99
-99 -99 -99 -99 -99 -99 -99 -99 -99 -99 -99 -99 -99 -99 -99 -99 -99 000 000 -99 -99 -99 000 -99 -99 000 000 000 -99 -99 -99
-99 -99 -99 -99 -99 -99 -99 -99 -99 -99 -99 -99 -99 -99 -99 -99 -99 000 000 -99 -99 000 -99 -99 -99 000 000 -99 -99 -99 -99
-99 -99 -99 -99 -99 -99 -99 -99 -99 -99 -99 -99 -99 -99 -99 -99 000 000 000 000 -99 -99 -99 -99 -99 -99 -99 000 -99 -99 -99
-99 -99 -99 -99 -99 -99 -99 -99 -99 -99 -99 -99 000 -99 -99 -99 000 000 000 000 -99 -99 -99 -99 -99 -99 -99 000 -99 -99 -99
-99 -99 -99 -99 -99 -99 -99 -99 -99 -99 000 000 000 000 -99 -99 000 000 000 -99 -99 -99 -99 -99 -99 -99 -99 000 -99 -99 -99
-99 -99 -99 -99 -99 -99 -99 -99 000 000 000 000 000 000 -99 -99 -99 000 000 -99 -99 -99 -99 -99 -99 -99 -99 -99 -99 -99 -99
-99 -99 -99 -99 -99 -99 -99 -99 000 000 000 000 000 000 -99 -99 000 -99 -99 -99 -99 -99 -99 -99 -99 -99 -99 -99 -99 -99 -99
